8 8 1
5 2 1 7 2 9 2 3 4 4 6 1 5 16 2 6 7 7 8
5 2 1 5 2 7 2 3 5 4 7 1 5 18 2 6 8 7 9
5 2 1 6 2 7 2 3 4 4 6 1 5 12 2 6 10 7 11
5 2 1 8 2 9 2 3 6 4 8 1 5 26 2 6 6 7 8
5 2 1 6 2 8 2 3 7 4 9 1 5 22 2 6 5 7 7
5 2 1 5 5 8 2 3 4 4 9 1 5 24 2 6 7 7 9
5 2 1 8 2 9 2 3 7 4 9 1 5 20 2 6 8 7 10
5 2 1 5 2 10 2 3 6 4 8 1 5 20 2 6 6 7 8